NAME: cluster_3
TYPE: TSP
DIMENSION: 13
EDGE_WEIGHT_TYPE: EUC_2D
NODE_COORD_SECTION
1 12000.00 16000.00
2 8987.06 29511.56
3 10939.71 27833.81
4 10049.76 27952.62
5 9390.34 24674.74
6 9497.65 27173.72
7 9958.43 24788.70
8 13160.23 30530.00
9 13519.14 31349.70
10 12343.25 26181.20
11 10438.66 30908.61
12 9005.39 28531.96
13 10388.83 30945.47
EOF
